
Gurobi 9.5.1 (win64, Python) logging started Sat May 14 03:41:23 2022

Set parameter Username
Set parameter LogFile to value "gurobi.log"
Academic license - for non-commercial use only - expires 2022-07-12
